Maximize
profit: -10 W_0_0_0-9 W_0_0_1-8 W_0_0_2-10 W_0_1_0-9 W_0_1_1-8 W_0_1_2-10 W_1_0_0-9 W_1_0_1-8 W_1_0_2-10 W_1_1_0-9 W_1_1_1-8 W_1_1_2-10 W_2_0_0-9 W_2_0_1-8 W_2_0_2-10 W_2_1_0-9 W_2_1_1-8 W_2_1_2-10 W_3_0_0-9 W_3_0_1-8 W_3_0_2-10 W_3_1_0-9 W_3_1_1-8 W_3_1_2-10 W_4_0_0-9 W_4_0_1-8 W_4_0_2-10 W_4_1_0-9 W_4_1_1-8 W_4_1_2-10 W_5_0_0-9 W_5_0_1-8 W_5_0_2-10 W_5_1_0-9 W_5_1_1-8 W_5_1_2-10 W_6_0_0-9 W_6_0_1-8 W_6_0_2-10 W_6_1_0-9 W_6_1_1-8 W_6_1_2-10 W_7_0_0-9 W_7_0_1-8 W_7_0_2-10 W_7_1_0-9 W_7_1_1-8 W_7_1_2-10 W_8_0_0-9 W_8_0_1-8 W_8_0_2-10 W_8_1_0-9 W_8_1_1-8 W_8_1_2-10 W_9_0_0-9 W_9_0_1-8 W_9_0_2-10 W_9_1_0-9 W_9_1_1-8 W_9_1_2-10 W_10_0_0-9 W_10_0_1-8 W_10_0_2-10 W_10_1_0-9 W_10_1_1-8 W_10_1_2-10 W_11_0_0-9 W_11_0_1-8 W_11_0_2-10 W_11_1_0-9 W_11_1_1-8 W_11_1_2-11 Y_0_0 -11 Y_1_0 -11 Y_0_1 -11 Y_1_1 -11 Y_0_2 -11 Y_1_2 -11 Y_0_3 -11 Y_1_3 -11 Y_0_4 -11 Y_1_4 -11 Y_0_5 -11 Y_1_5 -11 Y_0_6 -11 Y_1_6 -11 Y_0_7 -11 Y_1_7 -11 Y_0_8 -11 Y_1_8 -11 Y_0_9 -11 Y_1_9 -11 Y_0_10 -11 Y_1_10 -11 Y_0_11 -11 Y_1_11 -11 Y_0_12 -11 Y_1_12 +15 W_0_0_0+15 W_0_0_1+15 W_0_0_2+15 W_0_1_0+15 W_0_1_1+15 W_0_1_2+15 W_1_0_0+15 W_1_0_1+15 W_1_0_2+15 W_1_1_0+15 W_1_1_1+15 W_1_1_2+15 W_2_0_0+15 W_2_0_1+15 W_2_0_2+15 W_2_1_0+15 W_2_1_1+15 W_2_1_2+15 W_3_0_0+15 W_3_0_1+15 W_3_0_2+15 W_3_1_0+15 W_3_1_1+15 W_3_1_2+15 W_4_0_0+15 W_4_0_1+15 W_4_0_2+15 W_4_1_0+15 W_4_1_1+15 W_4_1_2+15 W_5_0_0+15 W_5_0_1+15 W_5_0_2+15 W_5_1_0+15 W_5_1_1+15 W_5_1_2+15 W_6_0_0+15 W_6_0_1+15 W_6_0_2+15 W_6_1_0+15 W_6_1_1+15 W_6_1_2+15 W_7_0_0+15 W_7_0_1+15 W_7_0_2+15 W_7_1_0+15 W_7_1_1+15 W_7_1_2+15 W_8_0_0+15 W_8_0_1+15 W_8_0_2+15 W_8_1_0+15 W_8_1_1+15 W_8_1_2+15 W_9_0_0+15 W_9_0_1+15 W_9_0_2+15 W_9_1_0+15 W_9_1_1+15 W_9_1_2+15 W_10_0_0+15 W_10_0_1+15 W_10_0_2+15 W_10_1_0+15 W_10_1_1+15 W_10_1_2+15 W_11_0_0+15 W_11_0_1+15 W_11_0_2+15 W_11_1_0+15 W_11_1_1+15 W_11_1_2-18000000 Z_0 -21600000 Z_1 -25200000 Z_2 -10000000 Z_0 -12000000 Z_1 -13500000 Z_2  +68100000 cst

Subject to
stock_0_0: Y_0_1 - Y_0_0 - X_0_0 =  -50000
stock_1_0: Y_1_1 - Y_1_0 - X_1_0 =  -50000
stock_0_1: Y_0_2 - Y_0_1 - X_0_1 =  -60000
stock_1_1: Y_1_2 - Y_1_1 - X_1_1 =  -50000
stock_0_2: Y_0_3 - Y_0_2 - X_0_2 =  -60000
stock_1_2: Y_1_3 - Y_1_2 - X_1_2 =  -70000
stock_0_3: Y_0_4 - Y_0_3 - X_0_3 =  -40000
stock_1_3: Y_1_4 - Y_1_3 - X_1_3 =  -50000
stock_0_4: Y_0_5 - Y_0_4 - X_0_4 =  -40000
stock_1_4: Y_1_5 - Y_1_4 - X_1_4 =  -40000
stock_0_5: Y_0_6 - Y_0_5 - X_0_5 =  -50000
stock_1_5: Y_1_6 - Y_1_5 - X_1_5 =  -50000
stock_0_6: Y_0_7 - Y_0_6 - X_0_6 =  -60000
stock_1_6: Y_1_7 - Y_1_6 - X_1_6 =  -50000
stock_0_7: Y_0_8 - Y_0_7 - X_0_7 =  -50000
stock_1_7: Y_1_8 - Y_1_7 - X_1_7 =  -60000
stock_0_8: Y_0_9 - Y_0_8 - X_0_8 =  -50000
stock_1_8: Y_1_9 - Y_1_8 - X_1_8 =  -50000
stock_0_9: Y_0_10 - Y_0_9 - X_0_9 =  -60000
stock_1_9: Y_1_10 - Y_1_9 - X_1_9 =  -35000
stock_0_10: Y_0_11 - Y_0_10 - X_0_10 =  -60000
stock_1_10: Y_1_11 - Y_1_10 - X_1_10 =  -45000
stock_0_11: Y_0_12 - Y_0_11 - X_0_11 =  -50000
stock_1_11: Y_1_12 - Y_1_11 - X_1_11 =  -60000

Capa_0: X_0_0 + X_1_0 - 100000 Z_0 - 120000 Z_1 - 140000 Z_2 <= 0
Capa_1: X_0_1 + X_1_1 - 100000 Z_0 - 120000 Z_1 - 140000 Z_2 <= 0
Capa_2: X_0_2 + X_1_2 - 100000 Z_0 - 120000 Z_1 - 140000 Z_2 <= 0
Capa_3: X_0_3 + X_1_3 - 100000 Z_0 - 120000 Z_1 - 140000 Z_2 <= 0
Capa_4: X_0_4 + X_1_4 - 100000 Z_0 - 120000 Z_1 - 140000 Z_2 <= 0
Capa_5: X_0_5 + X_1_5 - 100000 Z_0 - 120000 Z_1 - 140000 Z_2 <= 0
Capa_6: X_0_6 + X_1_6 - 100000 Z_0 - 120000 Z_1 - 140000 Z_2 <= 0
Capa_7: X_0_7 + X_1_7 - 100000 Z_0 - 120000 Z_1 - 140000 Z_2 <= 0
Capa_8: X_0_8 + X_1_8 - 100000 Z_0 - 120000 Z_1 - 140000 Z_2 <= 0
Capa_9: X_0_9 + X_1_9 - 100000 Z_0 - 120000 Z_1 - 140000 Z_2 <= 0
Capa_10: X_0_10 + X_1_10 - 100000 Z_0 - 120000 Z_1 - 140000 Z_2 <= 0
Capa_11: X_0_11 + X_1_11 - 100000 Z_0 - 120000 Z_1 - 140000 Z_2 <= 0
Somme_Z: Z_0 + Z_1 + Z_2 = 1
W_0_0_0_a: W_0_0_0 - X_0_0 <= 0
W_0_0_0_b: W_0_0_0 - 100000 Z_0 <= 0
W_0_0_0_c: W_0_0_0 >= 0
W_0_0_1_a: W_0_0_1 - X_0_0 <= 0
W_0_0_1_b: W_0_0_1 - 120000 Z_1 <= 0
W_0_0_1_c: W_0_0_1 >= 0
W_0_0_2_a: W_0_0_2 - X_0_0 <= 0
W_0_0_2_b: W_0_0_2 - 140000 Z_2 <= 0
W_0_0_2_c: W_0_0_2 >= 0
W_0_1_0_a: W_0_1_0 - X_0_1 <= 0
W_0_1_0_b: W_0_1_0 - 100000 Z_0 <= 0
W_0_1_0_c: W_0_1_0 >= 0
W_0_1_1_a: W_0_1_1 - X_0_1 <= 0
W_0_1_1_b: W_0_1_1 - 120000 Z_1 <= 0
W_0_1_1_c: W_0_1_1 >= 0
W_0_1_2_a: W_0_1_2 - X_0_1 <= 0
W_0_1_2_b: W_0_1_2 - 140000 Z_2 <= 0
W_0_1_2_c: W_0_1_2 >= 0
W_1_0_0_a: W_1_0_0 - X_1_0 <= 0
W_1_0_0_b: W_1_0_0 - 100000 Z_0 <= 0
W_1_0_0_c: W_1_0_0 >= 0
W_1_0_1_a: W_1_0_1 - X_1_0 <= 0
W_1_0_1_b: W_1_0_1 - 120000 Z_1 <= 0
W_1_0_1_c: W_1_0_1 >= 0
W_1_0_2_a: W_1_0_2 - X_1_0 <= 0
W_1_0_2_b: W_1_0_2 - 140000 Z_2 <= 0
W_1_0_2_c: W_1_0_2 >= 0
W_1_1_0_a: W_1_1_0 - X_1_1 <= 0
W_1_1_0_b: W_1_1_0 - 100000 Z_0 <= 0
W_1_1_0_c: W_1_1_0 >= 0
W_1_1_1_a: W_1_1_1 - X_1_1 <= 0
W_1_1_1_b: W_1_1_1 - 120000 Z_1 <= 0
W_1_1_1_c: W_1_1_1 >= 0
W_1_1_2_a: W_1_1_2 - X_1_1 <= 0
W_1_1_2_b: W_1_1_2 - 140000 Z_2 <= 0
W_1_1_2_c: W_1_1_2 >= 0
W_2_0_0_a: W_2_0_0 - X_2_0 <= 0
W_2_0_0_b: W_2_0_0 - 100000 Z_0 <= 0
W_2_0_0_c: W_2_0_0 >= 0
W_2_0_1_a: W_2_0_1 - X_2_0 <= 0
W_2_0_1_b: W_2_0_1 - 120000 Z_1 <= 0
W_2_0_1_c: W_2_0_1 >= 0
W_2_0_2_a: W_2_0_2 - X_2_0 <= 0
W_2_0_2_b: W_2_0_2 - 140000 Z_2 <= 0
W_2_0_2_c: W_2_0_2 >= 0
W_2_1_0_a: W_2_1_0 - X_2_1 <= 0
W_2_1_0_b: W_2_1_0 - 100000 Z_0 <= 0
W_2_1_0_c: W_2_1_0 >= 0
W_2_1_1_a: W_2_1_1 - X_2_1 <= 0
W_2_1_1_b: W_2_1_1 - 120000 Z_1 <= 0
W_2_1_1_c: W_2_1_1 >= 0
W_2_1_2_a: W_2_1_2 - X_2_1 <= 0
W_2_1_2_b: W_2_1_2 - 140000 Z_2 <= 0
W_2_1_2_c: W_2_1_2 >= 0
W_3_0_0_a: W_3_0_0 - X_3_0 <= 0
W_3_0_0_b: W_3_0_0 - 100000 Z_0 <= 0
W_3_0_0_c: W_3_0_0 >= 0
W_3_0_1_a: W_3_0_1 - X_3_0 <= 0
W_3_0_1_b: W_3_0_1 - 120000 Z_1 <= 0
W_3_0_1_c: W_3_0_1 >= 0
W_3_0_2_a: W_3_0_2 - X_3_0 <= 0
W_3_0_2_b: W_3_0_2 - 140000 Z_2 <= 0
W_3_0_2_c: W_3_0_2 >= 0
W_3_1_0_a: W_3_1_0 - X_3_1 <= 0
W_3_1_0_b: W_3_1_0 - 100000 Z_0 <= 0
W_3_1_0_c: W_3_1_0 >= 0
W_3_1_1_a: W_3_1_1 - X_3_1 <= 0
W_3_1_1_b: W_3_1_1 - 120000 Z_1 <= 0
W_3_1_1_c: W_3_1_1 >= 0
W_3_1_2_a: W_3_1_2 - X_3_1 <= 0
W_3_1_2_b: W_3_1_2 - 140000 Z_2 <= 0
W_3_1_2_c: W_3_1_2 >= 0
W_4_0_0_a: W_4_0_0 - X_4_0 <= 0
W_4_0_0_b: W_4_0_0 - 100000 Z_0 <= 0
W_4_0_0_c: W_4_0_0 >= 0
W_4_0_1_a: W_4_0_1 - X_4_0 <= 0
W_4_0_1_b: W_4_0_1 - 120000 Z_1 <= 0
W_4_0_1_c: W_4_0_1 >= 0
W_4_0_2_a: W_4_0_2 - X_4_0 <= 0
W_4_0_2_b: W_4_0_2 - 140000 Z_2 <= 0
W_4_0_2_c: W_4_0_2 >= 0
W_4_1_0_a: W_4_1_0 - X_4_1 <= 0
W_4_1_0_b: W_4_1_0 - 100000 Z_0 <= 0
W_4_1_0_c: W_4_1_0 >= 0
W_4_1_1_a: W_4_1_1 - X_4_1 <= 0
W_4_1_1_b: W_4_1_1 - 120000 Z_1 <= 0
W_4_1_1_c: W_4_1_1 >= 0
W_4_1_2_a: W_4_1_2 - X_4_1 <= 0
W_4_1_2_b: W_4_1_2 - 140000 Z_2 <= 0
W_4_1_2_c: W_4_1_2 >= 0
W_5_0_0_a: W_5_0_0 - X_5_0 <= 0
W_5_0_0_b: W_5_0_0 - 100000 Z_0 <= 0
W_5_0_0_c: W_5_0_0 >= 0
W_5_0_1_a: W_5_0_1 - X_5_0 <= 0
W_5_0_1_b: W_5_0_1 - 120000 Z_1 <= 0
W_5_0_1_c: W_5_0_1 >= 0
W_5_0_2_a: W_5_0_2 - X_5_0 <= 0
W_5_0_2_b: W_5_0_2 - 140000 Z_2 <= 0
W_5_0_2_c: W_5_0_2 >= 0
W_5_1_0_a: W_5_1_0 - X_5_1 <= 0
W_5_1_0_b: W_5_1_0 - 100000 Z_0 <= 0
W_5_1_0_c: W_5_1_0 >= 0
W_5_1_1_a: W_5_1_1 - X_5_1 <= 0
W_5_1_1_b: W_5_1_1 - 120000 Z_1 <= 0
W_5_1_1_c: W_5_1_1 >= 0
W_5_1_2_a: W_5_1_2 - X_5_1 <= 0
W_5_1_2_b: W_5_1_2 - 140000 Z_2 <= 0
W_5_1_2_c: W_5_1_2 >= 0
W_6_0_0_a: W_6_0_0 - X_6_0 <= 0
W_6_0_0_b: W_6_0_0 - 100000 Z_0 <= 0
W_6_0_0_c: W_6_0_0 >= 0
W_6_0_1_a: W_6_0_1 - X_6_0 <= 0
W_6_0_1_b: W_6_0_1 - 120000 Z_1 <= 0
W_6_0_1_c: W_6_0_1 >= 0
W_6_0_2_a: W_6_0_2 - X_6_0 <= 0
W_6_0_2_b: W_6_0_2 - 140000 Z_2 <= 0
W_6_0_2_c: W_6_0_2 >= 0
W_6_1_0_a: W_6_1_0 - X_6_1 <= 0
W_6_1_0_b: W_6_1_0 - 100000 Z_0 <= 0
W_6_1_0_c: W_6_1_0 >= 0
W_6_1_1_a: W_6_1_1 - X_6_1 <= 0
W_6_1_1_b: W_6_1_1 - 120000 Z_1 <= 0
W_6_1_1_c: W_6_1_1 >= 0
W_6_1_2_a: W_6_1_2 - X_6_1 <= 0
W_6_1_2_b: W_6_1_2 - 140000 Z_2 <= 0
W_6_1_2_c: W_6_1_2 >= 0
W_7_0_0_a: W_7_0_0 - X_7_0 <= 0
W_7_0_0_b: W_7_0_0 - 100000 Z_0 <= 0
W_7_0_0_c: W_7_0_0 >= 0
W_7_0_1_a: W_7_0_1 - X_7_0 <= 0
W_7_0_1_b: W_7_0_1 - 120000 Z_1 <= 0
W_7_0_1_c: W_7_0_1 >= 0
W_7_0_2_a: W_7_0_2 - X_7_0 <= 0
W_7_0_2_b: W_7_0_2 - 140000 Z_2 <= 0
W_7_0_2_c: W_7_0_2 >= 0
W_7_1_0_a: W_7_1_0 - X_7_1 <= 0
W_7_1_0_b: W_7_1_0 - 100000 Z_0 <= 0
W_7_1_0_c: W_7_1_0 >= 0
W_7_1_1_a: W_7_1_1 - X_7_1 <= 0
W_7_1_1_b: W_7_1_1 - 120000 Z_1 <= 0
W_7_1_1_c: W_7_1_1 >= 0
W_7_1_2_a: W_7_1_2 - X_7_1 <= 0
W_7_1_2_b: W_7_1_2 - 140000 Z_2 <= 0
W_7_1_2_c: W_7_1_2 >= 0
W_8_0_0_a: W_8_0_0 - X_8_0 <= 0
W_8_0_0_b: W_8_0_0 - 100000 Z_0 <= 0
W_8_0_0_c: W_8_0_0 >= 0
W_8_0_1_a: W_8_0_1 - X_8_0 <= 0
W_8_0_1_b: W_8_0_1 - 120000 Z_1 <= 0
W_8_0_1_c: W_8_0_1 >= 0
W_8_0_2_a: W_8_0_2 - X_8_0 <= 0
W_8_0_2_b: W_8_0_2 - 140000 Z_2 <= 0
W_8_0_2_c: W_8_0_2 >= 0
W_8_1_0_a: W_8_1_0 - X_8_1 <= 0
W_8_1_0_b: W_8_1_0 - 100000 Z_0 <= 0
W_8_1_0_c: W_8_1_0 >= 0
W_8_1_1_a: W_8_1_1 - X_8_1 <= 0
W_8_1_1_b: W_8_1_1 - 120000 Z_1 <= 0
W_8_1_1_c: W_8_1_1 >= 0
W_8_1_2_a: W_8_1_2 - X_8_1 <= 0
W_8_1_2_b: W_8_1_2 - 140000 Z_2 <= 0
W_8_1_2_c: W_8_1_2 >= 0
W_9_0_0_a: W_9_0_0 - X_9_0 <= 0
W_9_0_0_b: W_9_0_0 - 100000 Z_0 <= 0
W_9_0_0_c: W_9_0_0 >= 0
W_9_0_1_a: W_9_0_1 - X_9_0 <= 0
W_9_0_1_b: W_9_0_1 - 120000 Z_1 <= 0
W_9_0_1_c: W_9_0_1 >= 0
W_9_0_2_a: W_9_0_2 - X_9_0 <= 0
W_9_0_2_b: W_9_0_2 - 140000 Z_2 <= 0
W_9_0_2_c: W_9_0_2 >= 0
W_9_1_0_a: W_9_1_0 - X_9_1 <= 0
W_9_1_0_b: W_9_1_0 - 100000 Z_0 <= 0
W_9_1_0_c: W_9_1_0 >= 0
W_9_1_1_a: W_9_1_1 - X_9_1 <= 0
W_9_1_1_b: W_9_1_1 - 120000 Z_1 <= 0
W_9_1_1_c: W_9_1_1 >= 0
W_9_1_2_a: W_9_1_2 - X_9_1 <= 0
W_9_1_2_b: W_9_1_2 - 140000 Z_2 <= 0
W_9_1_2_c: W_9_1_2 >= 0
W_10_0_0_a: W_10_0_0 - X_10_0 <= 0
W_10_0_0_b: W_10_0_0 - 100000 Z_0 <= 0
W_10_0_0_c: W_10_0_0 >= 0
W_10_0_1_a: W_10_0_1 - X_10_0 <= 0
W_10_0_1_b: W_10_0_1 - 120000 Z_1 <= 0
W_10_0_1_c: W_10_0_1 >= 0
W_10_0_2_a: W_10_0_2 - X_10_0 <= 0
W_10_0_2_b: W_10_0_2 - 140000 Z_2 <= 0
W_10_0_2_c: W_10_0_2 >= 0
W_10_1_0_a: W_10_1_0 - X_10_1 <= 0
W_10_1_0_b: W_10_1_0 - 100000 Z_0 <= 0
W_10_1_0_c: W_10_1_0 >= 0
W_10_1_1_a: W_10_1_1 - X_10_1 <= 0
W_10_1_1_b: W_10_1_1 - 120000 Z_1 <= 0
W_10_1_1_c: W_10_1_1 >= 0
W_10_1_2_a: W_10_1_2 - X_10_1 <= 0
W_10_1_2_b: W_10_1_2 - 140000 Z_2 <= 0
W_10_1_2_c: W_10_1_2 >= 0
W_11_0_0_a: W_11_0_0 - X_11_0 <= 0
W_11_0_0_b: W_11_0_0 - 100000 Z_0 <= 0
W_11_0_0_c: W_11_0_0 >= 0
W_11_0_1_a: W_11_0_1 - X_11_0 <= 0
W_11_0_1_b: W_11_0_1 - 120000 Z_1 <= 0
W_11_0_1_c: W_11_0_1 >= 0
W_11_0_2_a: W_11_0_2 - X_11_0 <= 0
W_11_0_2_b: W_11_0_2 - 140000 Z_2 <= 0
W_11_0_2_c: W_11_0_2 >= 0
W_11_1_0_a: W_11_1_0 - X_11_1 <= 0
W_11_1_0_b: W_11_1_0 - 100000 Z_0 <= 0
W_11_1_0_c: W_11_1_0 >= 0
W_11_1_1_a: W_11_1_1 - X_11_1 <= 0
W_11_1_1_b: W_11_1_1 - 120000 Z_1 <= 0
W_11_1_1_c: W_11_1_1 >= 0
W_11_1_2_a: W_11_1_2 - X_11_1 <= 0
W_11_1_2_b: W_11_1_2 - 140000 Z_2 <= 0
W_11_1_2_c: W_11_1_2 >= 0

Bounds
cst = 1
Y_0_0 = 0
Y_1_0 = 0

Binaries
Z_0 Z_1 Z_2 
End